
%FILE DATA:	Soccer Computational Problem for MiniZinc Models	%
%AUTHOR:	Jack Wall	%
%CONTACT:  	116397063@umail.ucc.ie			%
%LAST UPDATE:	03/03/2020, 12:08:21						%
%DESCRIPTION: 	28 games played with 14 games left				%


n=7; %number of teams

%Games to play
games=[|3,6|6,3|6,1|7,4|7,2|2,6|5,2|2,5|3,7|2,7|2,1|4,6|3,1|7,6|];

%Initial points
iPoints=[8,13,12,13,14,12,7];

%POSITION CONSTRAINTS
% [|teamID, operator, position|...]
% operators index:
%  1 for =  operator
%  2 for >  operator
%  3 for >= operator
%  4 for <  operator
%  5 for <= operator
positionConstraints=[|5,1,1|2,1,2|7,2,2|];